0 4849
1 4813
10 4807
15 4802
18 4790
20 4787
23 4746
25 4737
26 4708
30 4697
41 4685
44 4652
46 4638
62 4633
65 4620
71 4610
72 4601
74 4595
77 4582
81 4567
91 4528
92 4520
102 4478
114 4476
115 4455
130 4415
133 4408
140 4404
151 4398
155 4396
157 4380
162 4369
163 4351
170 4346
171 4334
175 4329
180 4323
320 4320
325 4299
326 4275
330 4256
333 4237
342 4236
365 4235
388 4221
406 4210
458 4204
481 4194
490 4193
529 4188
544 4186
547 4185
665 4176
690 4173
702 4160
972 4153
1074 4140
1125 4139
1149 4135
1294 4132
1336 4128
1351 4119
1359 4117
1392 4111
1398 4100
1490 4091
1908 4076
2025 4067
2104 4061
2180 4055
2185 4048
2186 4037
2229 4036
2262 4034
2600 4033
2629 4032
2692 4031
3691 4021
3824 4015
4173 4014
4370 4011
4447 4006
4513 4003
5875 3998
